\ Model SimpleKP
\ LP format - for model browsing. Use MPS format to capture full model detail.
Maximize
  8.96 X[0] + 7.64 X[1] + 7.84 X[2] + 9.63 X[3] + 5.36 X[4] + 5.44 X[5]
   + 5.1 X[6] + 9.16 X[7] + 8.89 X[8] + 9.35 X[9] + 2.2 Y[0,0] + 1.8 Y[0,1]
   + 2.4 Y[0,2] + 1.8 Y[0,3] + 2 Y[0,4] + 2 Y[1,0] + 2.4 Y[1,1]
   + 2.2 Y[1,2] + 2 Y[1,3] + 2 Y[1,4] + 1.8 Y[2,0] + 1.6 Y[2,1] + 2 Y[2,2]
   + 2 Y[2,3] + 2.2 Y[2,4] + 2.2 Y[3,0] + 2 Y[3,1] + 2 Y[3,2] + 1.8 Y[3,3]
   + 1.8 Y[3,4] + 1.6 Y[4,0] + 2.4 Y[4,1] + 1.8 Y[4,2] + 2 Y[4,3]
   + 1.8 Y[4,4] + 2.2 Y[5,0] + 1.6 Y[5,1] + 2 Y[5,2] + 1.8 Y[5,3]
   + 2 Y[5,4] + 1.8 Y[6,0] + 1.8 Y[6,1] + 2 Y[6,2] + 2 Y[6,3] + 2 Y[6,4]
   + 2 Y[7,0] + 1.8 Y[7,1] + 2 Y[7,2] + 1.8 Y[7,3] + 2 Y[7,4] + 1.8 Y[8,0]
   + 1.6 Y[8,1] + 2 Y[8,2] + 2 Y[8,3] + 1.6 Y[8,4] + 2 Y[9,0] + 1.8 Y[9,1]
   + 2 Y[9,2] + 2.2 Y[9,3] + 2 Y[9,4]
Subject To
 volume_limit_fs: 6 X[0] + 7 X[1] + 6 X[2] + 6 X[3] + 5 X[4] + 7 X[5]
   + 5 X[6] + 9 X[7] + 10 X[8] + 4 X[9] <= 50
 volume_limit_ss_0: 10 Y[0,0] + 8 Y[1,0] + 5 Y[2,0] + 8 Y[3,0] + 2 Y[4,0]
   + 7 Y[5,0] + 2 Y[6,0] + 10 Y[7,0] + 6 Y[8,0] + 5 Y[9,0] <= 50
 volume_limit_ss_1: 10 Y[0,1] + 8 Y[1,1] + 5 Y[2,1] + 8 Y[3,1] + 2 Y[4,1]
   + 7 Y[5,1] + 2 Y[6,1] + 10 Y[7,1] + 6 Y[8,1] + 5 Y[9,1] <= 50
 volume_limit_ss_2: 10 Y[0,2] + 8 Y[1,2] + 5 Y[2,2] + 8 Y[3,2] + 2 Y[4,2]
   + 7 Y[5,2] + 2 Y[6,2] + 10 Y[7,2] + 6 Y[8,2] + 5 Y[9,2] <= 50
 volume_limit_ss_3: 10 Y[0,3] + 8 Y[1,3] + 5 Y[2,3] + 8 Y[3,3] + 2 Y[4,3]
   + 7 Y[5,3] + 2 Y[6,3] + 10 Y[7,3] + 6 Y[8,3] + 5 Y[9,3] <= 50
 volume_limit_ss_4: 10 Y[0,4] + 8 Y[1,4] + 5 Y[2,4] + 8 Y[3,4] + 2 Y[4,4]
   + 7 Y[5,4] + 2 Y[6,4] + 10 Y[7,4] + 6 Y[8,4] + 5 Y[9,4] <= 50
 link_X_Y_for_item_0: - X[0] + Y[0,0] + Y[0,1] + Y[0,2] + Y[0,3] + Y[0,4]
   <= 0
 link_X_Y_for_item_1: - X[1] + Y[1,0] + Y[1,1] + Y[1,2] + Y[1,3] + Y[1,4]
   <= 0
 link_X_Y_for_item_2: - X[2] + Y[2,0] + Y[2,1] + Y[2,2] + Y[2,3] + Y[2,4]
   <= 0
 link_X_Y_for_item_3: - X[3] + Y[3,0] + Y[3,1] + Y[3,2] + Y[3,3] + Y[3,4]
   <= 0
 link_X_Y_for_item_4: - X[4] + Y[4,0] + Y[4,1] + Y[4,2] + Y[4,3] + Y[4,4]
   <= 0
 link_X_Y_for_item_5: - X[5] + Y[5,0] + Y[5,1] + Y[5,2] + Y[5,3] + Y[5,4]
   <= 0
 link_X_Y_for_item_6: - X[6] + Y[6,0] + Y[6,1] + Y[6,2] + Y[6,3] + Y[6,4]
   <= 0
 link_X_Y_for_item_7: - X[7] + Y[7,0] + Y[7,1] + Y[7,2] + Y[7,3] + Y[7,4]
   <= 0
 link_X_Y_for_item_8: - X[8] + Y[8,0] + Y[8,1] + Y[8,2] + Y[8,3] + Y[8,4]
   <= 0
 link_X_Y_for_item_9: - X[9] + Y[9,0] + Y[9,1] + Y[9,2] + Y[9,3] + Y[9,4]
   <= 0
Bounds
 X[0] <= 1
 X[1] <= 1
 X[2] <= 1
 X[3] <= 1
 X[4] <= 1
 X[5] <= 1
 X[6] <= 1
 X[7] <= 1
 X[8] <= 1
 X[9] <= 1
 Y[0,0] <= 1
 Y[0,1] <= 1
 Y[0,2] <= 1
 Y[0,3] <= 1
 Y[0,4] <= 1
 Y[1,0] <= 1
 Y[1,1] <= 1
 Y[1,2] <= 1
 Y[1,3] <= 1
 Y[1,4] <= 1
 Y[2,0] <= 1
 Y[2,1] <= 1
 Y[2,2] <= 1
 Y[2,3] <= 1
 Y[2,4] <= 1
 Y[3,0] <= 1
 Y[3,1] <= 1
 Y[3,2] <= 1
 Y[3,3] <= 1
 Y[3,4] <= 1
 Y[4,0] <= 1
 Y[4,1] <= 1
 Y[4,2] <= 1
 Y[4,3] <= 1
 Y[4,4] <= 1
 Y[5,0] <= 1
 Y[5,1] <= 1
 Y[5,2] <= 1
 Y[5,3] <= 1
 Y[5,4] <= 1
 Y[6,0] <= 1
 Y[6,1] <= 1
 Y[6,2] <= 1
 Y[6,3] <= 1
 Y[6,4] <= 1
 Y[7,0] <= 1
 Y[7,1] <= 1
 Y[7,2] <= 1
 Y[7,3] <= 1
 Y[7,4] <= 1
 Y[8,0] <= 1
 Y[8,1] <= 1
 Y[8,2] <= 1
 Y[8,3] <= 1
 Y[8,4] <= 1
 Y[9,0] <= 1
 Y[9,1] <= 1
 Y[9,2] <= 1
 Y[9,3] <= 1
 Y[9,4] <= 1
Generals
 X[0] X[1] X[2] X[3] X[4] X[5] X[6] X[7] X[8] X[9] Y[0,0] Y[0,1] Y[0,2]
 Y[0,3] Y[0,4] Y[1,0] Y[1,1] Y[1,2] Y[1,3] Y[1,4] Y[2,0] Y[2,1] Y[2,2]
 Y[2,3] Y[2,4] Y[3,0] Y[3,1] Y[3,2] Y[3,3] Y[3,4] Y[4,0] Y[4,1] Y[4,2]
 Y[4,3] Y[4,4] Y[5,0] Y[5,1] Y[5,2] Y[5,3] Y[5,4] Y[6,0] Y[6,1] Y[6,2]
 Y[6,3] Y[6,4] Y[7,0] Y[7,1] Y[7,2] Y[7,3] Y[7,4] Y[8,0] Y[8,1] Y[8,2]
 Y[8,3] Y[8,4] Y[9,0] Y[9,1] Y[9,2] Y[9,3] Y[9,4]
End
